objective value:                                   -5
t_n_10                                              1 	(obj:-1)
t_n_470                                             1 	(obj:-1)
t_n_715                                             1 	(obj:-1)
t_n_791                                             1 	(obj:-1)
t_n_885                                             1 	(obj:-1)
